c
c Renamed file of decod.cnf 
c Variables are renamed according to left2right.ord 
c
c Date: Thu Apr 29 14:49:17 PDT 2004 by (jinbo)
c Host: Linux solution 2.4.18-4smp #1 SMP Thu May 2 18:32:34 EDT 2002 i686 unknown
c
c Copyright (c) 2001 Fadi A. Aloul.
c
p cnf 41 122
29 -35 0
28 -35 0
27 -35 0
33 -35 0
35 -29 -28 -27 -33 0
-35 17 0
-17 35 0
-29 -34 0
28 -34 0
27 -34 0
33 -34 0
34 29 -28 -27 -33 0
-34 16 0
-16 34 0
29 -32 0
-28 -32 0
27 -32 0
33 -32 0
32 -29 28 -27 -33 0
-32 15 0
-15 32 0
-29 -31 0
-28 -31 0
27 -31 0
33 -31 0
31 29 28 -27 -33 0
-31 14 0
-14 31 0
29 -30 0
28 -30 0
-27 -30 0
33 -30 0
30 -29 -28 27 -33 0
-30 13 0
-13 30 0
-29 -36 0
28 -36 0
-27 -36 0
33 -36 0
36 29 -28 27 -33 0
-36 39 0
-39 36 0
29 -26 0
-28 -26 0
-27 -26 0
33 -26 0
26 -29 28 27 -33 0
-26 12 0
-12 26 0
-29 -38 0
-28 -38 0
-27 -38 0
33 -38 0
38 29 28 27 -33 0
-38 41 0
-41 38 0
29 -37 0
28 -37 0
27 -37 0
22 -37 0
37 -29 -28 -27 -22 0
-37 40 0
-40 37 0
-29 -21 0
28 -21 0
27 -21 0
22 -21 0
21 29 -28 -27 -22 0
-21 8 0
-8 21 0
29 -18 0
-28 -18 0
27 -18 0
22 -18 0
18 -29 28 -27 -22 0
-18 5 0
-5 18 0
-29 -20 0
-28 -20 0
27 -20 0
22 -20 0
20 29 28 -27 -22 0
-20 7 0
-7 20 0
29 -19 0
28 -19 0
-27 -19 0
22 -19 0
19 -29 -28 27 -22 0
-19 6 0
-6 19 0
-29 -24 0
28 -24 0
-27 -24 0
22 -24 0
24 29 -28 27 -22 0
-24 10 0
-10 24 0
29 -23 0
-28 -23 0
-27 -23 0
22 -23 0
23 -29 28 27 -22 0
-23 9 0
-9 23 0
-29 -25 0
-28 -25 0
-27 -25 0
22 -25 0
25 29 28 27 -22 0
-25 11 0
-11 25 0
-1 -3 0
2 -3 0
3 1 -2 0
-3 22 0
-22 3 0
1 -4 0
2 -4 0
4 -1 -2 0
-4 33 0
-33 4 0
